&CONTROL
    calculation = 'scf'
    verbosity = 'high'
    restart_mode = 'from_scratch'
    nstep = 100
    pseudo_dir = '.'
    tefield = .TRUE.
    dipfield = .TRUE.
    outdir = './tmp'
    prefix = 'Ni_N2H4_NH2.cis.scf.3'
/

&SYSTEM
    ibrav = 0
    nat = 45
    ntyp = 3
    ecutwfc = 30.0
    ecutrho = 280.0
    occupations = 'smearing'
    smearing = 'mv'
    degauss = 0.02
    nspin = 2
    starting_magnetization(1) = 0.7
    edir = 3
    emaxpos = 0.7
    eopreg = 0.05
    eamp = 0.0
    vdw_corr = 'dft-d'
/

&ELECTRONS
    mixing_beta = 0.2
    mixing_mode = 'local-TF'
    electron_maxstep = 300
    diagonalization = 'david'
/

ATOMIC_SPECIES
    Ni  58.6934 Ni.pbe-n-kjpaw_psl.0.1.UPF
    N   14.0067 N.pbe-n-kjpaw_psl.0.1.UPF
    H   1.0079  H.pbe-kjpaw_psl.0.1.UPF

ATOMIC_POSITIONS {angstrom}
N   2.49434737  2.18836330 7.74960817
H   2.45903191  2.00118693 8.38430817
H   2.52966283  1.38553967 8.38430817  
Ni      -0.008198626  -0.025173243   5.980749242
Ni       2.487894233  -0.062856129   6.022479915
Ni       4.987527640  -0.012539011   6.088526709
Ni      -1.245779519   2.138626157   5.981080552
Ni       1.231737387   2.132822277   6.067323242
Ni       3.756957357   2.243904335   6.031893104
Ni      -2.486927192   4.316673613   5.962306667
Ni      -0.004902099   4.225780769   5.911400060
Ni       2.491015215   4.360804067   5.929697170
Ni       1.264616233   0.703806543   4.045627691
Ni       3.735091741   0.724030629   4.038811789
Ni       6.204518063   0.691907224   4.041340732
Ni       0.014071259   2.837066666   4.010742729
Ni       2.485248465   2.863376390   4.015046587
Ni       4.980667866   2.858948483   4.015945875
Ni      -1.245712345   5.029533300   3.990641485
Ni       1.237547217   5.038138815   3.999900103
Ni       3.743556896   5.026989816   3.991439617
Ni       0.000000000   1.438666970   2.034582350    0   0   0
Ni       2.491844300   1.438666970   2.034582350    0   0   0
Ni       4.983688600   1.438666970   2.034582350    0   0   0
Ni      -1.245922150   3.596667440   2.034582350    0   0   0
Ni       1.245922140   3.596667440   2.034582350    0   0   0
Ni       3.737766450   3.596667440   2.034582350    0   0   0
Ni      -2.491844300   5.754667900   2.034582350    0   0   0
Ni       0.000000000   5.754667900   2.034582350    0   0   0
Ni       2.491844300   5.754667900   2.034582350    0   0   0
Ni       0.000000000   0.000000000   0.000000000    0   0   0
Ni       2.491844300   0.000000000   0.000000000    0   0   0
Ni       4.983688600   0.000000000   0.000000000    0   0   0
Ni      -1.245922150   2.158000460   0.000000000    0   0   0
Ni       1.245922150   2.158000460   0.000000000    0   0   0
Ni       3.737766450   2.158000460   0.000000000    0   0   0
Ni      -2.491844300   4.316000930   0.000000000    0   0   0
Ni       0.000000000   4.316000930   0.000000000    0   0   0
Ni       2.491844300   4.316000930   0.000000000    0   0   0
H        1.509506431   1.309903264   8.514665444
H        1.429631429   2.995398840   8.486941339
H        3.615840866   1.275806946   8.275340886
H        3.610728391   2.984609432   8.572412803
N        1.798204990   2.161832068   8.009446449
N        3.268064796   2.221650991   7.976404453

K_POINTS {automatic}
    5   5   1   0   0   0

CELL_PARAMETERS {bohr}
    14.12660294 0.00000000  0.00000000
    -7.06330147 12.23399702 0.00000000
    0.00000000  0.00000000  45.54913594

